NAME geodata
ROWS
 N  OBJ
 L  job_tA1 
 L  job_tA2 
 L  job_tB1 
 L  job_tB2 
 L  job_tC1 
 L  job_tC2 
 L  job_tC3 
 L  job_tD1 
 L  job_tD2 
 L  job_tD3 
 L  job_tD4 
 L  job_tD5 
 L  job_tE1 
 L  job_tE2 
 L  job_tE3 
 L  job_tE4 
 L  job_tE5 
 L  job_tE6 
 L  job_tF1 
 L  job_tF2 
 L  job_tF3 
 L  job_tF4 
 L  job_tF5 
 L  job_tF6 
 L  job_tF7 
 L  job_tF8 
 L  job_tF9 
 L  dc_DC1  
 L  dc_DC2  
 L  dc_DC3  
 L  dc_DC4  
 L  dc_DC5  
 L  dc_DC6  
 L  dc_DC7  
 L  dc_DC8  
 L  dc_DC9  
 L  dc_DC10 
 L  dc_DC11 
 L  dc_DC12 
 L  dc_DC13 
COLUMNS
    MARKER    'MARKER'                 'INTORG'
    schedule[0]  job_tA1   1
    schedule[0]  dc_DC1    1
    schedule[1]  job_tA1   1
    schedule[1]  dc_DC2    1
    schedule[2]  job_tA1   1
    schedule[2]  dc_DC3    1
    schedule[3]  job_tA1   1
    schedule[3]  dc_DC4    1
    schedule[4]  job_tA1   1
    schedule[4]  dc_DC5    1
    schedule[5]  job_tA1   1
    schedule[5]  dc_DC6    1
    schedule[6]  job_tA1   1
    schedule[6]  dc_DC7    1
    schedule[7]  job_tA1   1
    schedule[7]  dc_DC8    1
    schedule[8]  job_tA1   1
    schedule[8]  dc_DC9    1
    schedule[9]  job_tA1   1
    schedule[9]  dc_DC10   1
    schedule[10]  job_tA1   1
    schedule[10]  dc_DC11   1
    schedule[11]  job_tA1   1
    schedule[11]  dc_DC12   1
    schedule[12]  job_tA1   1
    schedule[12]  dc_DC13   1
    schedule[13]  job_tA2   1
    schedule[13]  dc_DC1    1
    schedule[14]  job_tA2   1
    schedule[14]  dc_DC2    1
    schedule[15]  job_tA2   1
    schedule[15]  dc_DC3    1
    schedule[16]  job_tA2   1
    schedule[16]  dc_DC4    1
    schedule[17]  job_tA2   1
    schedule[17]  dc_DC5    1
    schedule[18]  job_tA2   1
    schedule[18]  dc_DC6    1
    schedule[19]  job_tA2   1
    schedule[19]  dc_DC7    1
    schedule[20]  job_tA2   1
    schedule[20]  dc_DC8    1
    schedule[21]  job_tA2   1
    schedule[21]  dc_DC9    1
    schedule[22]  job_tA2   1
    schedule[22]  dc_DC10   1
    schedule[23]  job_tA2   1
    schedule[23]  dc_DC11   1
    schedule[24]  job_tA2   1
    schedule[24]  dc_DC12   1
    schedule[25]  job_tA2   1
    schedule[25]  dc_DC13   1
    schedule[26]  job_tB1   1
    schedule[26]  dc_DC1    1
    schedule[27]  job_tB1   1
    schedule[27]  dc_DC2    1
    schedule[28]  job_tB1   1
    schedule[28]  dc_DC3    1
    schedule[29]  job_tB1   1
    schedule[29]  dc_DC4    1
    schedule[30]  job_tB1   1
    schedule[30]  dc_DC5    1
    schedule[31]  job_tB1   1
    schedule[31]  dc_DC6    1
    schedule[32]  job_tB1   1
    schedule[32]  dc_DC7    1
    schedule[33]  job_tB1   1
    schedule[33]  dc_DC8    1
    schedule[34]  job_tB1   1
    schedule[34]  dc_DC9    1
    schedule[35]  job_tB1   1
    schedule[35]  dc_DC10   1
    schedule[36]  job_tB1   1
    schedule[36]  dc_DC11   1
    schedule[37]  job_tB1   1
    schedule[37]  dc_DC12   1
    schedule[38]  job_tB1   1
    schedule[38]  dc_DC13   1
    schedule[39]  job_tB2   1
    schedule[39]  dc_DC1    1
    schedule[40]  job_tB2   1
    schedule[40]  dc_DC2    1
    schedule[41]  job_tB2   1
    schedule[41]  dc_DC3    1
    schedule[42]  job_tB2   1
    schedule[42]  dc_DC4    1
    schedule[43]  job_tB2   1
    schedule[43]  dc_DC5    1
    schedule[44]  job_tB2   1
    schedule[44]  dc_DC6    1
    schedule[45]  job_tB2   1
    schedule[45]  dc_DC7    1
    schedule[46]  job_tB2   1
    schedule[46]  dc_DC8    1
    schedule[47]  job_tB2   1
    schedule[47]  dc_DC9    1
    schedule[48]  job_tB2   1
    schedule[48]  dc_DC10   1
    schedule[49]  job_tB2   1
    schedule[49]  dc_DC11   1
    schedule[50]  job_tB2   1
    schedule[50]  dc_DC12   1
    schedule[51]  job_tB2   1
    schedule[51]  dc_DC13   1
    schedule[52]  job_tC1   1
    schedule[52]  dc_DC1    1
    schedule[53]  job_tC1   1
    schedule[53]  dc_DC2    1
    schedule[54]  job_tC1   1
    schedule[54]  dc_DC3    1
    schedule[55]  job_tC1   1
    schedule[55]  dc_DC4    1
    schedule[56]  job_tC1   1
    schedule[56]  dc_DC5    1
    schedule[57]  job_tC1   1
    schedule[57]  dc_DC6    1
    schedule[58]  job_tC1   1
    schedule[58]  dc_DC7    1
    schedule[59]  job_tC1   1
    schedule[59]  dc_DC8    1
    schedule[60]  job_tC1   1
    schedule[60]  dc_DC9    1
    schedule[61]  job_tC1   1
    schedule[61]  dc_DC10   1
    schedule[62]  job_tC1   1
    schedule[62]  dc_DC11   1
    schedule[63]  job_tC1   1
    schedule[63]  dc_DC12   1
    schedule[64]  job_tC1   1
    schedule[64]  dc_DC13   1
    schedule[65]  job_tC2   1
    schedule[65]  dc_DC1    1
    schedule[66]  job_tC2   1
    schedule[66]  dc_DC2    1
    schedule[67]  job_tC2   1
    schedule[67]  dc_DC3    1
    schedule[68]  job_tC2   1
    schedule[68]  dc_DC4    1
    schedule[69]  job_tC2   1
    schedule[69]  dc_DC5    1
    schedule[70]  job_tC2   1
    schedule[70]  dc_DC6    1
    schedule[71]  job_tC2   1
    schedule[71]  dc_DC7    1
    schedule[72]  job_tC2   1
    schedule[72]  dc_DC8    1
    schedule[73]  job_tC2   1
    schedule[73]  dc_DC9    1
    schedule[74]  job_tC2   1
    schedule[74]  dc_DC10   1
    schedule[75]  job_tC2   1
    schedule[75]  dc_DC11   1
    schedule[76]  job_tC2   1
    schedule[76]  dc_DC12   1
    schedule[77]  job_tC2   1
    schedule[77]  dc_DC13   1
    schedule[78]  job_tC3   1
    schedule[78]  dc_DC1    1
    schedule[79]  job_tC3   1
    schedule[79]  dc_DC2    1
    schedule[80]  job_tC3   1
    schedule[80]  dc_DC3    1
    schedule[81]  job_tC3   1
    schedule[81]  dc_DC4    1
    schedule[82]  job_tC3   1
    schedule[82]  dc_DC5    1
    schedule[83]  job_tC3   1
    schedule[83]  dc_DC6    1
    schedule[84]  job_tC3   1
    schedule[84]  dc_DC7    1
    schedule[85]  job_tC3   1
    schedule[85]  dc_DC8    1
    schedule[86]  job_tC3   1
    schedule[86]  dc_DC9    1
    schedule[87]  job_tC3   1
    schedule[87]  dc_DC10   1
    schedule[88]  job_tC3   1
    schedule[88]  dc_DC11   1
    schedule[89]  job_tC3   1
    schedule[89]  dc_DC12   1
    schedule[90]  job_tC3   1
    schedule[90]  dc_DC13   1
    schedule[91]  job_tD1   1
    schedule[91]  dc_DC1    1
    schedule[92]  job_tD1   1
    schedule[92]  dc_DC2    1
    schedule[93]  job_tD1   1
    schedule[93]  dc_DC3    1
    schedule[94]  job_tD1   1
    schedule[94]  dc_DC4    1
    schedule[95]  job_tD1   1
    schedule[95]  dc_DC5    1
    schedule[96]  job_tD1   1
    schedule[96]  dc_DC6    1
    schedule[97]  job_tD1   1
    schedule[97]  dc_DC7    1
    schedule[98]  job_tD1   1
    schedule[98]  dc_DC8    1
    schedule[99]  job_tD1   1
    schedule[99]  dc_DC9    1
    schedule[100]  job_tD1   1
    schedule[100]  dc_DC10   1
    schedule[101]  job_tD1   1
    schedule[101]  dc_DC11   1
    schedule[102]  job_tD1   1
    schedule[102]  dc_DC12   1
    schedule[103]  job_tD1   1
    schedule[103]  dc_DC13   1
    schedule[104]  job_tD2   1
    schedule[104]  dc_DC1    1
    schedule[105]  job_tD2   1
    schedule[105]  dc_DC2    1
    schedule[106]  job_tD2   1
    schedule[106]  dc_DC3    1
    schedule[107]  job_tD2   1
    schedule[107]  dc_DC4    1
    schedule[108]  job_tD2   1
    schedule[108]  dc_DC5    1
    schedule[109]  job_tD2   1
    schedule[109]  dc_DC6    1
    schedule[110]  job_tD2   1
    schedule[110]  dc_DC7    1
    schedule[111]  job_tD2   1
    schedule[111]  dc_DC8    1
    schedule[112]  job_tD2   1
    schedule[112]  dc_DC9    1
    schedule[113]  job_tD2   1
    schedule[113]  dc_DC10   1
    schedule[114]  job_tD2   1
    schedule[114]  dc_DC11   1
    schedule[115]  job_tD2   1
    schedule[115]  dc_DC12   1
    schedule[116]  job_tD2   1
    schedule[116]  dc_DC13   1
    schedule[117]  job_tD3   1
    schedule[117]  dc_DC1    1
    schedule[118]  job_tD3   1
    schedule[118]  dc_DC2    1
    schedule[119]  job_tD3   1
    schedule[119]  dc_DC3    1
    schedule[120]  job_tD3   1
    schedule[120]  dc_DC4    1
    schedule[121]  job_tD3   1
    schedule[121]  dc_DC5    1
    schedule[122]  job_tD3   1
    schedule[122]  dc_DC6    1
    schedule[123]  job_tD3   1
    schedule[123]  dc_DC7    1
    schedule[124]  job_tD3   1
    schedule[124]  dc_DC8    1
    schedule[125]  job_tD3   1
    schedule[125]  dc_DC9    1
    schedule[126]  job_tD3   1
    schedule[126]  dc_DC10   1
    schedule[127]  job_tD3   1
    schedule[127]  dc_DC11   1
    schedule[128]  job_tD3   1
    schedule[128]  dc_DC12   1
    schedule[129]  job_tD3   1
    schedule[129]  dc_DC13   1
    schedule[130]  job_tD4   1
    schedule[130]  dc_DC1    1
    schedule[131]  job_tD4   1
    schedule[131]  dc_DC2    1
    schedule[132]  job_tD4   1
    schedule[132]  dc_DC3    1
    schedule[133]  job_tD4   1
    schedule[133]  dc_DC4    1
    schedule[134]  job_tD4   1
    schedule[134]  dc_DC5    1
    schedule[135]  job_tD4   1
    schedule[135]  dc_DC6    1
    schedule[136]  job_tD4   1
    schedule[136]  dc_DC7    1
    schedule[137]  job_tD4   1
    schedule[137]  dc_DC8    1
    schedule[138]  job_tD4   1
    schedule[138]  dc_DC9    1
    schedule[139]  job_tD4   1
    schedule[139]  dc_DC10   1
    schedule[140]  job_tD4   1
    schedule[140]  dc_DC11   1
    schedule[141]  job_tD4   1
    schedule[141]  dc_DC12   1
    schedule[142]  job_tD4   1
    schedule[142]  dc_DC13   1
    schedule[143]  job_tD5   1
    schedule[143]  dc_DC1    1
    schedule[144]  job_tD5   1
    schedule[144]  dc_DC2    1
    schedule[145]  job_tD5   1
    schedule[145]  dc_DC3    1
    schedule[146]  job_tD5   1
    schedule[146]  dc_DC4    1
    schedule[147]  job_tD5   1
    schedule[147]  dc_DC5    1
    schedule[148]  job_tD5   1
    schedule[148]  dc_DC6    1
    schedule[149]  job_tD5   1
    schedule[149]  dc_DC7    1
    schedule[150]  job_tD5   1
    schedule[150]  dc_DC8    1
    schedule[151]  job_tD5   1
    schedule[151]  dc_DC9    1
    schedule[152]  job_tD5   1
    schedule[152]  dc_DC10   1
    schedule[153]  job_tD5   1
    schedule[153]  dc_DC11   1
    schedule[154]  job_tD5   1
    schedule[154]  dc_DC12   1
    schedule[155]  job_tD5   1
    schedule[155]  dc_DC13   1
    schedule[156]  job_tE1   1
    schedule[156]  dc_DC1    1
    schedule[157]  job_tE1   1
    schedule[157]  dc_DC2    1
    schedule[158]  job_tE1   1
    schedule[158]  dc_DC3    1
    schedule[159]  job_tE1   1
    schedule[159]  dc_DC4    1
    schedule[160]  job_tE1   1
    schedule[160]  dc_DC5    1
    schedule[161]  job_tE1   1
    schedule[161]  dc_DC6    1
    schedule[162]  job_tE1   1
    schedule[162]  dc_DC7    1
    schedule[163]  job_tE1   1
    schedule[163]  dc_DC8    1
    schedule[164]  job_tE1   1
    schedule[164]  dc_DC9    1
    schedule[165]  job_tE1   1
    schedule[165]  dc_DC10   1
    schedule[166]  job_tE1   1
    schedule[166]  dc_DC11   1
    schedule[167]  job_tE1   1
    schedule[167]  dc_DC12   1
    schedule[168]  job_tE1   1
    schedule[168]  dc_DC13   1
    schedule[169]  job_tE2   1
    schedule[169]  dc_DC1    1
    schedule[170]  job_tE2   1
    schedule[170]  dc_DC2    1
    schedule[171]  job_tE2   1
    schedule[171]  dc_DC3    1
    schedule[172]  job_tE2   1
    schedule[172]  dc_DC4    1
    schedule[173]  job_tE2   1
    schedule[173]  dc_DC5    1
    schedule[174]  job_tE2   1
    schedule[174]  dc_DC6    1
    schedule[175]  job_tE2   1
    schedule[175]  dc_DC7    1
    schedule[176]  job_tE2   1
    schedule[176]  dc_DC8    1
    schedule[177]  job_tE2   1
    schedule[177]  dc_DC9    1
    schedule[178]  job_tE2   1
    schedule[178]  dc_DC10   1
    schedule[179]  job_tE2   1
    schedule[179]  dc_DC11   1
    schedule[180]  job_tE2   1
    schedule[180]  dc_DC12   1
    schedule[181]  job_tE2   1
    schedule[181]  dc_DC13   1
    schedule[182]  job_tE3   1
    schedule[182]  dc_DC1    1
    schedule[183]  job_tE3   1
    schedule[183]  dc_DC2    1
    schedule[184]  job_tE3   1
    schedule[184]  dc_DC3    1
    schedule[185]  job_tE3   1
    schedule[185]  dc_DC4    1
    schedule[186]  job_tE3   1
    schedule[186]  dc_DC5    1
    schedule[187]  job_tE3   1
    schedule[187]  dc_DC6    1
    schedule[188]  job_tE3   1
    schedule[188]  dc_DC7    1
    schedule[189]  job_tE3   1
    schedule[189]  dc_DC8    1
    schedule[190]  job_tE3   1
    schedule[190]  dc_DC9    1
    schedule[191]  job_tE3   1
    schedule[191]  dc_DC10   1
    schedule[192]  job_tE3   1
    schedule[192]  dc_DC11   1
    schedule[193]  job_tE3   1
    schedule[193]  dc_DC12   1
    schedule[194]  job_tE3   1
    schedule[194]  dc_DC13   1
    schedule[195]  job_tE4   1
    schedule[195]  dc_DC1    1
    schedule[196]  job_tE4   1
    schedule[196]  dc_DC2    1
    schedule[197]  job_tE4   1
    schedule[197]  dc_DC3    1
    schedule[198]  job_tE4   1
    schedule[198]  dc_DC4    1
    schedule[199]  job_tE4   1
    schedule[199]  dc_DC5    1
    schedule[200]  job_tE4   1
    schedule[200]  dc_DC6    1
    schedule[201]  job_tE4   1
    schedule[201]  dc_DC7    1
    schedule[202]  job_tE4   1
    schedule[202]  dc_DC8    1
    schedule[203]  job_tE4   1
    schedule[203]  dc_DC9    1
    schedule[204]  job_tE4   1
    schedule[204]  dc_DC10   1
    schedule[205]  job_tE4   1
    schedule[205]  dc_DC11   1
    schedule[206]  job_tE4   1
    schedule[206]  dc_DC12   1
    schedule[207]  job_tE4   1
    schedule[207]  dc_DC13   1
    schedule[208]  job_tE5   1
    schedule[208]  dc_DC1    1
    schedule[209]  job_tE5   1
    schedule[209]  dc_DC2    1
    schedule[210]  job_tE5   1
    schedule[210]  dc_DC3    1
    schedule[211]  job_tE5   1
    schedule[211]  dc_DC4    1
    schedule[212]  job_tE5   1
    schedule[212]  dc_DC5    1
    schedule[213]  job_tE5   1
    schedule[213]  dc_DC6    1
    schedule[214]  job_tE5   1
    schedule[214]  dc_DC7    1
    schedule[215]  job_tE5   1
    schedule[215]  dc_DC8    1
    schedule[216]  job_tE5   1
    schedule[216]  dc_DC9    1
    schedule[217]  job_tE5   1
    schedule[217]  dc_DC10   1
    schedule[218]  job_tE5   1
    schedule[218]  dc_DC11   1
    schedule[219]  job_tE5   1
    schedule[219]  dc_DC12   1
    schedule[220]  job_tE5   1
    schedule[220]  dc_DC13   1
    schedule[221]  job_tE6   1
    schedule[221]  dc_DC1    1
    schedule[222]  job_tE6   1
    schedule[222]  dc_DC2    1
    schedule[223]  job_tE6   1
    schedule[223]  dc_DC3    1
    schedule[224]  job_tE6   1
    schedule[224]  dc_DC4    1
    schedule[225]  job_tE6   1
    schedule[225]  dc_DC5    1
    schedule[226]  job_tE6   1
    schedule[226]  dc_DC6    1
    schedule[227]  job_tE6   1
    schedule[227]  dc_DC7    1
    schedule[228]  job_tE6   1
    schedule[228]  dc_DC8    1
    schedule[229]  job_tE6   1
    schedule[229]  dc_DC9    1
    schedule[230]  job_tE6   1
    schedule[230]  dc_DC10   1
    schedule[231]  job_tE6   1
    schedule[231]  dc_DC11   1
    schedule[232]  job_tE6   1
    schedule[232]  dc_DC12   1
    schedule[233]  job_tE6   1
    schedule[233]  dc_DC13   1
    schedule[234]  job_tF1   1
    schedule[234]  dc_DC1    1
    schedule[235]  job_tF1   1
    schedule[235]  dc_DC2    1
    schedule[236]  job_tF1   1
    schedule[236]  dc_DC3    1
    schedule[237]  job_tF1   1
    schedule[237]  dc_DC4    1
    schedule[238]  job_tF1   1
    schedule[238]  dc_DC5    1
    schedule[239]  job_tF1   1
    schedule[239]  dc_DC6    1
    schedule[240]  job_tF1   1
    schedule[240]  dc_DC7    1
    schedule[241]  job_tF1   1
    schedule[241]  dc_DC8    1
    schedule[242]  job_tF1   1
    schedule[242]  dc_DC9    1
    schedule[243]  job_tF1   1
    schedule[243]  dc_DC10   1
    schedule[244]  job_tF1   1
    schedule[244]  dc_DC11   1
    schedule[245]  job_tF1   1
    schedule[245]  dc_DC12   1
    schedule[246]  job_tF1   1
    schedule[246]  dc_DC13   1
    schedule[247]  job_tF2   1
    schedule[247]  dc_DC1    1
    schedule[248]  job_tF2   1
    schedule[248]  dc_DC2    1
    schedule[249]  job_tF2   1
    schedule[249]  dc_DC3    1
    schedule[250]  job_tF2   1
    schedule[250]  dc_DC4    1
    schedule[251]  job_tF2   1
    schedule[251]  dc_DC5    1
    schedule[252]  job_tF2   1
    schedule[252]  dc_DC6    1
    schedule[253]  job_tF2   1
    schedule[253]  dc_DC7    1
    schedule[254]  job_tF2   1
    schedule[254]  dc_DC8    1
    schedule[255]  job_tF2   1
    schedule[255]  dc_DC9    1
    schedule[256]  job_tF2   1
    schedule[256]  dc_DC10   1
    schedule[257]  job_tF2   1
    schedule[257]  dc_DC11   1
    schedule[258]  job_tF2   1
    schedule[258]  dc_DC12   1
    schedule[259]  job_tF2   1
    schedule[259]  dc_DC13   1
    schedule[260]  job_tF3   1
    schedule[260]  dc_DC1    1
    schedule[261]  job_tF3   1
    schedule[261]  dc_DC2    1
    schedule[262]  job_tF3   1
    schedule[262]  dc_DC3    1
    schedule[263]  job_tF3   1
    schedule[263]  dc_DC4    1
    schedule[264]  job_tF3   1
    schedule[264]  dc_DC5    1
    schedule[265]  job_tF3   1
    schedule[265]  dc_DC6    1
    schedule[266]  job_tF3   1
    schedule[266]  dc_DC7    1
    schedule[267]  job_tF3   1
    schedule[267]  dc_DC8    1
    schedule[268]  job_tF3   1
    schedule[268]  dc_DC9    1
    schedule[269]  job_tF3   1
    schedule[269]  dc_DC10   1
    schedule[270]  job_tF3   1
    schedule[270]  dc_DC11   1
    schedule[271]  job_tF3   1
    schedule[271]  dc_DC12   1
    schedule[272]  job_tF3   1
    schedule[272]  dc_DC13   1
    schedule[273]  job_tF4   1
    schedule[273]  dc_DC1    1
    schedule[274]  job_tF4   1
    schedule[274]  dc_DC2    1
    schedule[275]  job_tF4   1
    schedule[275]  dc_DC3    1
    schedule[276]  job_tF4   1
    schedule[276]  dc_DC4    1
    schedule[277]  job_tF4   1
    schedule[277]  dc_DC5    1
    schedule[278]  job_tF4   1
    schedule[278]  dc_DC6    1
    schedule[279]  job_tF4   1
    schedule[279]  dc_DC7    1
    schedule[280]  job_tF4   1
    schedule[280]  dc_DC8    1
    schedule[281]  job_tF4   1
    schedule[281]  dc_DC9    1
    schedule[282]  job_tF4   1
    schedule[282]  dc_DC10   1
    schedule[283]  job_tF4   1
    schedule[283]  dc_DC11   1
    schedule[284]  job_tF4   1
    schedule[284]  dc_DC12   1
    schedule[285]  job_tF4   1
    schedule[285]  dc_DC13   1
    schedule[286]  job_tF5   1
    schedule[286]  dc_DC1    1
    schedule[287]  job_tF5   1
    schedule[287]  dc_DC2    1
    schedule[288]  job_tF5   1
    schedule[288]  dc_DC3    1
    schedule[289]  job_tF5   1
    schedule[289]  dc_DC4    1
    schedule[290]  job_tF5   1
    schedule[290]  dc_DC5    1
    schedule[291]  job_tF5   1
    schedule[291]  dc_DC6    1
    schedule[292]  job_tF5   1
    schedule[292]  dc_DC7    1
    schedule[293]  job_tF5   1
    schedule[293]  dc_DC8    1
    schedule[294]  job_tF5   1
    schedule[294]  dc_DC9    1
    schedule[295]  job_tF5   1
    schedule[295]  dc_DC10   1
    schedule[296]  job_tF5   1
    schedule[296]  dc_DC11   1
    schedule[297]  job_tF5   1
    schedule[297]  dc_DC12   1
    schedule[298]  job_tF5   1
    schedule[298]  dc_DC13   1
    schedule[299]  job_tF6   1
    schedule[299]  dc_DC1    1
    schedule[300]  job_tF6   1
    schedule[300]  dc_DC2    1
    schedule[301]  job_tF6   1
    schedule[301]  dc_DC3    1
    schedule[302]  job_tF6   1
    schedule[302]  dc_DC4    1
    schedule[303]  job_tF6   1
    schedule[303]  dc_DC5    1
    schedule[304]  job_tF6   1
    schedule[304]  dc_DC6    1
    schedule[305]  job_tF6   1
    schedule[305]  dc_DC7    1
    schedule[306]  job_tF6   1
    schedule[306]  dc_DC8    1
    schedule[307]  job_tF6   1
    schedule[307]  dc_DC9    1
    schedule[308]  job_tF6   1
    schedule[308]  dc_DC10   1
    schedule[309]  job_tF6   1
    schedule[309]  dc_DC11   1
    schedule[310]  job_tF6   1
    schedule[310]  dc_DC12   1
    schedule[311]  job_tF6   1
    schedule[311]  dc_DC13   1
    schedule[312]  job_tF7   1
    schedule[312]  dc_DC1    1
    schedule[313]  job_tF7   1
    schedule[313]  dc_DC2    1
    schedule[314]  job_tF7   1
    schedule[314]  dc_DC3    1
    schedule[315]  job_tF7   1
    schedule[315]  dc_DC4    1
    schedule[316]  job_tF7   1
    schedule[316]  dc_DC5    1
    schedule[317]  job_tF7   1
    schedule[317]  dc_DC6    1
    schedule[318]  job_tF7   1
    schedule[318]  dc_DC7    1
    schedule[319]  job_tF7   1
    schedule[319]  dc_DC8    1
    schedule[320]  job_tF7   1
    schedule[320]  dc_DC9    1
    schedule[321]  job_tF7   1
    schedule[321]  dc_DC10   1
    schedule[322]  job_tF7   1
    schedule[322]  dc_DC11   1
    schedule[323]  job_tF7   1
    schedule[323]  dc_DC12   1
    schedule[324]  job_tF7   1
    schedule[324]  dc_DC13   1
    schedule[325]  job_tF8   1
    schedule[325]  dc_DC1    1
    schedule[326]  job_tF8   1
    schedule[326]  dc_DC2    1
    schedule[327]  job_tF8   1
    schedule[327]  dc_DC3    1
    schedule[328]  job_tF8   1
    schedule[328]  dc_DC4    1
    schedule[329]  job_tF8   1
    schedule[329]  dc_DC5    1
    schedule[330]  job_tF8   1
    schedule[330]  dc_DC6    1
    schedule[331]  job_tF8   1
    schedule[331]  dc_DC7    1
    schedule[332]  job_tF8   1
    schedule[332]  dc_DC8    1
    schedule[333]  job_tF8   1
    schedule[333]  dc_DC9    1
    schedule[334]  job_tF8   1
    schedule[334]  dc_DC10   1
    schedule[335]  job_tF8   1
    schedule[335]  dc_DC11   1
    schedule[336]  job_tF8   1
    schedule[336]  dc_DC12   1
    schedule[337]  job_tF8   1
    schedule[337]  dc_DC13   1
    schedule[338]  job_tF9   1
    schedule[338]  dc_DC1    1
    schedule[339]  job_tF9   1
    schedule[339]  dc_DC2    1
    schedule[340]  job_tF9   1
    schedule[340]  dc_DC3    1
    schedule[341]  job_tF9   1
    schedule[341]  dc_DC4    1
    schedule[342]  job_tF9   1
    schedule[342]  dc_DC5    1
    schedule[343]  job_tF9   1
    schedule[343]  dc_DC6    1
    schedule[344]  job_tF9   1
    schedule[344]  dc_DC7    1
    schedule[345]  job_tF9   1
    schedule[345]  dc_DC8    1
    schedule[346]  job_tF9   1
    schedule[346]  dc_DC9    1
    schedule[347]  job_tF9   1
    schedule[347]  dc_DC10   1
    schedule[348]  job_tF9   1
    schedule[348]  dc_DC11   1
    schedule[349]  job_tF9   1
    schedule[349]  dc_DC12   1
    schedule[350]  job_tF9   1
    schedule[350]  dc_DC13   1
    MARKER    'MARKER'                 'INTEND'
    average   OBJ       1
RHS
    RHS1      job_tA1   1
    RHS1      job_tA2   1
    RHS1      job_tB1   1
    RHS1      job_tB2   1
    RHS1      job_tC1   1
    RHS1      job_tC2   1
    RHS1      job_tC3   1
    RHS1      job_tD1   1
    RHS1      job_tD2   1
    RHS1      job_tD3   1
    RHS1      job_tD4   1
    RHS1      job_tD5   1
    RHS1      job_tE1   1
    RHS1      job_tE2   1
    RHS1      job_tE3   1
    RHS1      job_tE4   1
    RHS1      job_tE5   1
    RHS1      job_tE6   1
    RHS1      job_tF1   1
    RHS1      job_tF2   1
    RHS1      job_tF3   1
    RHS1      job_tF4   1
    RHS1      job_tF5   1
    RHS1      job_tF6   1
    RHS1      job_tF7   1
    RHS1      job_tF8   1
    RHS1      job_tF9   1
    RHS1      dc_DC1    2
    RHS1      dc_DC2    1
    RHS1      dc_DC3    3
    RHS1      dc_DC4    2
    RHS1      dc_DC5    1
    RHS1      dc_DC6    5
    RHS1      dc_DC7    2
    RHS1      dc_DC8    2
    RHS1      dc_DC9    2
    RHS1      dc_DC10   1
    RHS1      dc_DC11   2
    RHS1      dc_DC12   4
    RHS1      dc_DC13   4
BOUNDS
 BV BND1      schedule[0]
 BV BND1      schedule[1]
 BV BND1      schedule[2]
 BV BND1      schedule[3]
 BV BND1      schedule[4]
 BV BND1      schedule[5]
 BV BND1      schedule[6]
 BV BND1      schedule[7]
 BV BND1      schedule[8]
 BV BND1      schedule[9]
 BV BND1      schedule[10]
 BV BND1      schedule[11]
 BV BND1      schedule[12]
 BV BND1      schedule[13]
 BV BND1      schedule[14]
 BV BND1      schedule[15]
 BV BND1      schedule[16]
 BV BND1      schedule[17]
 BV BND1      schedule[18]
 BV BND1      schedule[19]
 BV BND1      schedule[20]
 BV BND1      schedule[21]
 BV BND1      schedule[22]
 BV BND1      schedule[23]
 BV BND1      schedule[24]
 BV BND1      schedule[25]
 BV BND1      schedule[26]
 BV BND1      schedule[27]
 BV BND1      schedule[28]
 BV BND1      schedule[29]
 BV BND1      schedule[30]
 BV BND1      schedule[31]
 BV BND1      schedule[32]
 BV BND1      schedule[33]
 BV BND1      schedule[34]
 BV BND1      schedule[35]
 BV BND1      schedule[36]
 BV BND1      schedule[37]
 BV BND1      schedule[38]
 BV BND1      schedule[39]
 BV BND1      schedule[40]
 BV BND1      schedule[41]
 BV BND1      schedule[42]
 BV BND1      schedule[43]
 BV BND1      schedule[44]
 BV BND1      schedule[45]
 BV BND1      schedule[46]
 BV BND1      schedule[47]
 BV BND1      schedule[48]
 BV BND1      schedule[49]
 BV BND1      schedule[50]
 BV BND1      schedule[51]
 BV BND1      schedule[52]
 BV BND1      schedule[53]
 BV BND1      schedule[54]
 BV BND1      schedule[55]
 BV BND1      schedule[56]
 BV BND1      schedule[57]
 BV BND1      schedule[58]
 BV BND1      schedule[59]
 BV BND1      schedule[60]
 BV BND1      schedule[61]
 BV BND1      schedule[62]
 BV BND1      schedule[63]
 BV BND1      schedule[64]
 BV BND1      schedule[65]
 BV BND1      schedule[66]
 BV BND1      schedule[67]
 BV BND1      schedule[68]
 BV BND1      schedule[69]
 BV BND1      schedule[70]
 BV BND1      schedule[71]
 BV BND1      schedule[72]
 BV BND1      schedule[73]
 BV BND1      schedule[74]
 BV BND1      schedule[75]
 BV BND1      schedule[76]
 BV BND1      schedule[77]
 BV BND1      schedule[78]
 BV BND1      schedule[79]
 BV BND1      schedule[80]
 BV BND1      schedule[81]
 BV BND1      schedule[82]
 BV BND1      schedule[83]
 BV BND1      schedule[84]
 BV BND1      schedule[85]
 BV BND1      schedule[86]
 BV BND1      schedule[87]
 BV BND1      schedule[88]
 BV BND1      schedule[89]
 BV BND1      schedule[90]
 BV BND1      schedule[91]
 BV BND1      schedule[92]
 BV BND1      schedule[93]
 BV BND1      schedule[94]
 BV BND1      schedule[95]
 BV BND1      schedule[96]
 BV BND1      schedule[97]
 BV BND1      schedule[98]
 BV BND1      schedule[99]
 BV BND1      schedule[100]
 BV BND1      schedule[101]
 BV BND1      schedule[102]
 BV BND1      schedule[103]
 BV BND1      schedule[104]
 BV BND1      schedule[105]
 BV BND1      schedule[106]
 BV BND1      schedule[107]
 BV BND1      schedule[108]
 BV BND1      schedule[109]
 BV BND1      schedule[110]
 BV BND1      schedule[111]
 BV BND1      schedule[112]
 BV BND1      schedule[113]
 BV BND1      schedule[114]
 BV BND1      schedule[115]
 BV BND1      schedule[116]
 BV BND1      schedule[117]
 BV BND1      schedule[118]
 BV BND1      schedule[119]
 BV BND1      schedule[120]
 BV BND1      schedule[121]
 BV BND1      schedule[122]
 BV BND1      schedule[123]
 BV BND1      schedule[124]
 BV BND1      schedule[125]
 BV BND1      schedule[126]
 BV BND1      schedule[127]
 BV BND1      schedule[128]
 BV BND1      schedule[129]
 BV BND1      schedule[130]
 BV BND1      schedule[131]
 BV BND1      schedule[132]
 BV BND1      schedule[133]
 BV BND1      schedule[134]
 BV BND1      schedule[135]
 BV BND1      schedule[136]
 BV BND1      schedule[137]
 BV BND1      schedule[138]
 BV BND1      schedule[139]
 BV BND1      schedule[140]
 BV BND1      schedule[141]
 BV BND1      schedule[142]
 BV BND1      schedule[143]
 BV BND1      schedule[144]
 BV BND1      schedule[145]
 BV BND1      schedule[146]
 BV BND1      schedule[147]
 BV BND1      schedule[148]
 BV BND1      schedule[149]
 BV BND1      schedule[150]
 BV BND1      schedule[151]
 BV BND1      schedule[152]
 BV BND1      schedule[153]
 BV BND1      schedule[154]
 BV BND1      schedule[155]
 BV BND1      schedule[156]
 BV BND1      schedule[157]
 BV BND1      schedule[158]
 BV BND1      schedule[159]
 BV BND1      schedule[160]
 BV BND1      schedule[161]
 BV BND1      schedule[162]
 BV BND1      schedule[163]
 BV BND1      schedule[164]
 BV BND1      schedule[165]
 BV BND1      schedule[166]
 BV BND1      schedule[167]
 BV BND1      schedule[168]
 BV BND1      schedule[169]
 BV BND1      schedule[170]
 BV BND1      schedule[171]
 BV BND1      schedule[172]
 BV BND1      schedule[173]
 BV BND1      schedule[174]
 BV BND1      schedule[175]
 BV BND1      schedule[176]
 BV BND1      schedule[177]
 BV BND1      schedule[178]
 BV BND1      schedule[179]
 BV BND1      schedule[180]
 BV BND1      schedule[181]
 BV BND1      schedule[182]
 BV BND1      schedule[183]
 BV BND1      schedule[184]
 BV BND1      schedule[185]
 BV BND1      schedule[186]
 BV BND1      schedule[187]
 BV BND1      schedule[188]
 BV BND1      schedule[189]
 BV BND1      schedule[190]
 BV BND1      schedule[191]
 BV BND1      schedule[192]
 BV BND1      schedule[193]
 BV BND1      schedule[194]
 BV BND1      schedule[195]
 BV BND1      schedule[196]
 BV BND1      schedule[197]
 BV BND1      schedule[198]
 BV BND1      schedule[199]
 BV BND1      schedule[200]
 BV BND1      schedule[201]
 BV BND1      schedule[202]
 BV BND1      schedule[203]
 BV BND1      schedule[204]
 BV BND1      schedule[205]
 BV BND1      schedule[206]
 BV BND1      schedule[207]
 BV BND1      schedule[208]
 BV BND1      schedule[209]
 BV BND1      schedule[210]
 BV BND1      schedule[211]
 BV BND1      schedule[212]
 BV BND1      schedule[213]
 BV BND1      schedule[214]
 BV BND1      schedule[215]
 BV BND1      schedule[216]
 BV BND1      schedule[217]
 BV BND1      schedule[218]
 BV BND1      schedule[219]
 BV BND1      schedule[220]
 BV BND1      schedule[221]
 BV BND1      schedule[222]
 BV BND1      schedule[223]
 BV BND1      schedule[224]
 BV BND1      schedule[225]
 BV BND1      schedule[226]
 BV BND1      schedule[227]
 BV BND1      schedule[228]
 BV BND1      schedule[229]
 BV BND1      schedule[230]
 BV BND1      schedule[231]
 BV BND1      schedule[232]
 BV BND1      schedule[233]
 BV BND1      schedule[234]
 BV BND1      schedule[235]
 BV BND1      schedule[236]
 BV BND1      schedule[237]
 BV BND1      schedule[238]
 BV BND1      schedule[239]
 BV BND1      schedule[240]
 BV BND1      schedule[241]
 BV BND1      schedule[242]
 BV BND1      schedule[243]
 BV BND1      schedule[244]
 BV BND1      schedule[245]
 BV BND1      schedule[246]
 BV BND1      schedule[247]
 BV BND1      schedule[248]
 BV BND1      schedule[249]
 BV BND1      schedule[250]
 BV BND1      schedule[251]
 BV BND1      schedule[252]
 BV BND1      schedule[253]
 BV BND1      schedule[254]
 BV BND1      schedule[255]
 BV BND1      schedule[256]
 BV BND1      schedule[257]
 BV BND1      schedule[258]
 BV BND1      schedule[259]
 BV BND1      schedule[260]
 BV BND1      schedule[261]
 BV BND1      schedule[262]
 BV BND1      schedule[263]
 BV BND1      schedule[264]
 BV BND1      schedule[265]
 BV BND1      schedule[266]
 BV BND1      schedule[267]
 BV BND1      schedule[268]
 BV BND1      schedule[269]
 BV BND1      schedule[270]
 BV BND1      schedule[271]
 BV BND1      schedule[272]
 BV BND1      schedule[273]
 BV BND1      schedule[274]
 BV BND1      schedule[275]
 BV BND1      schedule[276]
 BV BND1      schedule[277]
 BV BND1      schedule[278]
 BV BND1      schedule[279]
 BV BND1      schedule[280]
 BV BND1      schedule[281]
 BV BND1      schedule[282]
 BV BND1      schedule[283]
 BV BND1      schedule[284]
 BV BND1      schedule[285]
 BV BND1      schedule[286]
 BV BND1      schedule[287]
 BV BND1      schedule[288]
 BV BND1      schedule[289]
 BV BND1      schedule[290]
 BV BND1      schedule[291]
 BV BND1      schedule[292]
 BV BND1      schedule[293]
 BV BND1      schedule[294]
 BV BND1      schedule[295]
 BV BND1      schedule[296]
 BV BND1      schedule[297]
 BV BND1      schedule[298]
 BV BND1      schedule[299]
 BV BND1      schedule[300]
 BV BND1      schedule[301]
 BV BND1      schedule[302]
 BV BND1      schedule[303]
 BV BND1      schedule[304]
 BV BND1      schedule[305]
 BV BND1      schedule[306]
 BV BND1      schedule[307]
 BV BND1      schedule[308]
 BV BND1      schedule[309]
 BV BND1      schedule[310]
 BV BND1      schedule[311]
 BV BND1      schedule[312]
 BV BND1      schedule[313]
 BV BND1      schedule[314]
 BV BND1      schedule[315]
 BV BND1      schedule[316]
 BV BND1      schedule[317]
 BV BND1      schedule[318]
 BV BND1      schedule[319]
 BV BND1      schedule[320]
 BV BND1      schedule[321]
 BV BND1      schedule[322]
 BV BND1      schedule[323]
 BV BND1      schedule[324]
 BV BND1      schedule[325]
 BV BND1      schedule[326]
 BV BND1      schedule[327]
 BV BND1      schedule[328]
 BV BND1      schedule[329]
 BV BND1      schedule[330]
 BV BND1      schedule[331]
 BV BND1      schedule[332]
 BV BND1      schedule[333]
 BV BND1      schedule[334]
 BV BND1      schedule[335]
 BV BND1      schedule[336]
 BV BND1      schedule[337]
 BV BND1      schedule[338]
 BV BND1      schedule[339]
 BV BND1      schedule[340]
 BV BND1      schedule[341]
 BV BND1      schedule[342]
 BV BND1      schedule[343]
 BV BND1      schedule[344]
 BV BND1      schedule[345]
 BV BND1      schedule[346]
 BV BND1      schedule[347]
 BV BND1      schedule[348]
 BV BND1      schedule[349]
 BV BND1      schedule[350]
ENDATA
